(declare-fun var0 () String)
(assert (RegexIn var0 (RegexConcat (RegexStar (RegexUnion (Str2Reg "&&") (Str2Reg "''"))) (RegexConcat (RegexPlus (RegexUnion (Str2Reg "$$") (Str2Reg "%"))) (RegexConcat (RegexStar (RegexStar (Str2Reg "#"))) (RegexConcat (RegexUnion (RegexPlus (Str2Reg "!")) (RegexPlus (Str2Reg "\"\"\""))) (RegexConcat (RegexPlus (RegexUnion (Str2Reg "YY") (Str2Reg "Z"))) (RegexConcat (RegexStar (RegexStar (Str2Reg "XX"))) (RegexConcat (RegexStar (RegexPlus (Str2Reg "W"))) (RegexConcat (RegexPlus (RegexStar (Str2Reg "V"))) (RegexConcat (RegexUnion (RegexUnion (Str2Reg "S") (Str2Reg "TTT")) (RegexPlus (Str2Reg "U"))) (RegexConcat (RegexUnion (RegexStar (Str2Reg "QQ")) (RegexPlus (Str2Reg "RRR"))) (RegexConcat (RegexStar (RegexPlus (Str2Reg "PP"))) (RegexConcat (RegexPlus (RegexStar (Str2Reg "O"))) (RegexConcat (RegexPlus (RegexPlus (Str2Reg "NN"))) (RegexConcat (RegexUnion (RegexStar (Str2Reg "LLL")) (RegexPlus (Str2Reg "MM"))) (RegexConcat (RegexStar (RegexUnion (Str2Reg "JJ") (Str2Reg "K"))) (RegexConcat (RegexUnion (RegexStar (Str2Reg "HH")) (RegexPlus (Str2Reg "II"))) (RegexConcat (RegexStar (RegexUnion (Str2Reg "FF") (Str2Reg "GGG"))) (RegexConcat (RegexUnion (RegexPlus (Str2Reg "DDD")) (RegexPlus (Str2Reg "E"))) (RegexConcat (RegexUnion (RegexPlus (Str2Reg "B")) (RegexPlus (Str2Reg "CCC"))) (RegexConcat (RegexStar (RegexPlus (Str2Reg "AA"))) (RegexConcat (RegexPlus (RegexPlus (Str2Reg "zz"))) (RegexConcat (RegexUnion (RegexUnion (Str2Reg "ww") (Str2Reg "x")) (RegexStar (Str2Reg "yy"))) (RegexConcat (RegexUnion (RegexUnion (Str2Reg "ss") (Str2Reg "t")) (RegexUnion (Str2Reg "u") (Str2Reg "vvv"))) (RegexConcat (RegexPlus (RegexPlus (Str2Reg "rr"))) (RegexConcat (RegexUnion (RegexStar (Str2Reg "p")) (RegexStar (Str2Reg "q"))) (RegexConcat (RegexUnion (RegexPlus (Str2Reg "n")) (RegexPlus (Str2Reg "oo"))) (RegexConcat (RegexPlus (RegexPlus (Str2Reg "mm"))) (RegexConcat (RegexUnion (RegexUnion (Str2Reg "jj") (Str2Reg "kk")) (RegexPlus (Str2Reg "l"))) (RegexConcat (RegexStar (RegexStar (Str2Reg "iii"))) (RegexConcat (RegexUnion (RegexStar (Str2Reg "ggg")) (RegexPlus (Str2Reg "hh"))) (RegexConcat (RegexUnion (RegexStar (Str2Reg "dd")) (RegexUnion (Str2Reg "eee") (Str2Reg "fff"))) (RegexConcat (RegexStar (RegexPlus (Str2Reg "c"))) (RegexConcat (RegexUnion (RegexPlus (Str2Reg "999")) (RegexUnion (Str2Reg "aa") (Str2Reg "bbb"))) (RegexConcat (RegexUnion (RegexUnion (Str2Reg "55") (Str2Reg "666")) (RegexUnion (Str2Reg "7") (Str2Reg "88"))) (RegexConcat (RegexPlus (RegexStar (Str2Reg "4"))) (RegexConcat (RegexUnion (RegexUnion (Str2Reg "11") (Str2Reg "22")) (RegexStar (Str2Reg "333"))) (RegexPlus (RegexStar (Str2Reg "000")))))))))))))))))))))))))))))))))))))))))
(check-sat)